; benchmark generated from python API
(set-info :status unknown)
(declare-fun DISJ_W_S2_R_S2 () Bool)
(declare-fun R_S2_V1 () Bool)
(declare-fun R_S1_V5 () Bool)
(declare-fun W_S2_V5 () Bool)
(declare-fun W_S2_V3 () Bool)
(declare-fun W_S1_V5 () Bool)
(declare-fun W_S1_V1 () Bool)
(declare-fun R_S2_V3 () Bool)
(declare-fun R_S2_V2 () Bool)
(declare-fun W_S1_V2 () Bool)
(declare-fun R_S2_V5 () Bool)
(declare-fun R_S1_V1 () Bool)
(declare-fun R_S1_V3 () Bool)
(declare-fun R_S1_V2 () Bool)
(declare-fun R_S2_V4 () Bool)
(declare-fun R_S1_V4 () Bool)
(declare-fun W_S1_V4 () Bool)
(declare-fun DISJ_W_S1_R_S1 () Bool)
(declare-fun W_S2_V4 () Bool)
(declare-fun W_S1_V3 () Bool)
(declare-fun W_S2_V1 () Bool)
(declare-fun W_S2_V2 () Bool)
(declare-fun DISJ_W_S2_R_S1 () Bool)
(declare-fun DISJ_W_S1_W_S2 () Bool)
(declare-fun DISJ_W_S1_R_S2 () Bool)
(assert
 (let (($x536 (not (and (not R_S2_V1) DISJ_W_S2_R_S2))))
 (let (($x1611 (not (and W_S2_V5 R_S1_V5))))
 (let (($x3088 (not W_S2_V3)))
 (let (($x5912 (not (and W_S1_V5 W_S2_V5))))
 (let (($x2116 (not (and W_S1_V1 R_S2_V1))))
 (let (($x386 (not R_S2_V3)))
 (let (($x1442 (not (and W_S1_V2 R_S2_V2))))
 (let (($x3744 (not (and W_S1_V5 R_S2_V5))))
 (let (($x1310 (forall ((V4_0 Int) )(forall ((V5_0 Int) )(forall ((V2_0 Int) )(forall ((V3_0 Int) )(forall ((V1_0 Int) )(forall ((MW_S1_V4 Bool) )(forall ((MW_S1_V5 Bool) )(forall ((MW_S1_V2 Bool) )(forall ((MW_S1_V3 Bool) )(forall ((MW_S1_V1 Bool) )(forall ((MW_S2_V4 Bool) )(forall ((MW_S2_V5 Bool) )(forall ((MW_S2_V2 Bool) )(forall ((MW_S2_V3 Bool) )(forall ((MW_S2_V1 Bool) )(forall ((S1_V4_!5047 Int) )(forall ((S1_V4_!5057 Int) )(forall ((S1_V4_!5072 Int) )(forall ((S1_V4_!5077 Int) )(forall ((S2_V4_!5052 Int) )(forall ((S2_V4_!5062 Int) )(forall ((S2_V4_!5067 Int) )(forall ((S2_V5_!5053 Int) )(forall ((S2_V5_!5063 Int) )(forall ((S2_V5_!5068 Int) )(forall ((S1_V1_!5051 Int) )(forall ((S1_V1_!5061 Int) )(forall ((S1_V1_!5076 Int) )(forall ((S1_V1_!5081 Int) )(forall ((S1_V3_!5050 Int) )(forall ((S1_V3_!5060 Int) )(forall ((S1_V3_!5075 Int) )(forall ((S1_V3_!5080 Int) )(forall ((S1_V2_!5049 Int) )(forall ((S1_V2_!5059 Int) )(forall ((S1_V2_!5074 Int) )(forall ((S1_V2_!5079 Int) )(forall ((S2_V1_!5056 Int) )(forall ((S2_V1_!5066 Int) )(forall ((S2_V1_!5071 Int) )(forall ((S2_V2_!5054 Int) )(forall ((S2_V2_!5064 Int) )(forall ((S2_V2_!5069 Int) )(forall ((S2_V3_!5055 Int) )(forall ((S2_V3_!5065 Int) )(forall ((S2_V3_!5070 Int) )(forall ((S1_V5_!5048 Int) )(forall ((S1_V5_!5058 Int) )(forall ((S1_V5_!5073 Int) )(forall ((S1_V5_!5078 Int) )(let ((?x2771 (ite MW_S2_V1 S2_V1_!5071 V1_0)))
 (let ((?x3192 (ite MW_S1_V1 S1_V1_!5076 ?x2771)))
 (let ((?x2338 (+ 1 ?x3192)))
 (let ((?x1968 (ite MW_S1_V1 S1_V1_!5081 ?x2338)))
 (let ((?x2161 (ite MW_S1_V1 S1_V1_!5051 V1_0)))
 (let ((?x2210 (ite MW_S2_V1 S2_V1_!5056 ?x2161)))
 (let ((?x5952 (+ 1 ?x2210)))
 (let ((?x5766 (ite MW_S1_V1 S1_V1_!5061 ?x5952)))
 (let ((?x2678 (ite MW_S2_V1 S2_V1_!5066 ?x5766)))
 (let (($x3728 (= (ite MW_S2_V3 S2_V3_!5065 (ite MW_S1_V3 S1_V3_!5060 (ite MW_S2_V3 S2_V3_!5055 (ite MW_S1_V3 S1_V3_!5050 V3_0)))) (ite MW_S1_V3 S1_V3_!5080 (ite MW_S2_V3 S2_V3_!5070 V3_0)))))
 (let ((?x4020 (ite MW_S2_V2 S2_V2_!5069 V2_0)))
 (let ((?x5894 (ite MW_S1_V2 S1_V2_!5079 ?x4020)))
 (let ((?x2766 (ite MW_S1_V2 S1_V2_!5049 V2_0)))
 (let ((?x2933 (ite MW_S2_V2 S2_V2_!5054 ?x2766)))
 (let ((?x4528 (ite MW_S1_V2 S1_V2_!5059 ?x2933)))
 (let ((?x961 (ite MW_S2_V2 S2_V2_!5064 ?x4528)))
 (let (($x2311 (= (ite MW_S2_V5 S2_V5_!5063 (ite MW_S1_V5 S1_V5_!5058 (ite MW_S2_V5 S2_V5_!5053 (ite MW_S1_V5 S1_V5_!5048 V5_0)))) (ite MW_S1_V5 S1_V5_!5078 (ite MW_S2_V5 S2_V5_!5068 V5_0)))))
 (let (($x3270 (= (ite MW_S2_V4 S2_V4_!5062 (ite MW_S1_V4 S1_V4_!5057 (ite MW_S2_V4 S2_V4_!5052 (ite MW_S1_V4 S1_V4_!5047 V4_0)))) (ite MW_S1_V4 S1_V4_!5077 (ite MW_S2_V4 S2_V4_!5067 V4_0)))))
 (let (($x5310 (and (not (<= V2_0 V1_0)) (not (<= ?x2933 ?x5952)) (>= ?x2678 (+ (- 1) ?x961)) (not (<= ?x4020 ?x2771)) (not (<= (ite MW_S1_V2 S1_V2_!5074 ?x4020) ?x2338)) (>= ?x1968 (+ (- 1) ?x5894)))))
 (let (($x1409 (not MW_S2_V1)))
 (let (($x819 (not MW_S2_V2)))
 (let (($x5958 (= S1_V5_!5078 S1_V5_!5073)))
 (let (($x135 (not R_S1_V3)))
 (let (($x4223 (or $x135 (= (ite MW_S1_V3 S1_V3_!5075 (ite MW_S2_V3 S2_V3_!5070 V3_0)) (ite MW_S2_V3 S2_V3_!5070 V3_0)))))
 (let (($x4147 (not R_S1_V5)))
 (let (($x485 (or $x4147 (= (ite MW_S1_V5 S1_V5_!5073 (ite MW_S2_V5 S2_V5_!5068 V5_0)) (ite MW_S2_V5 S2_V5_!5068 V5_0)))))
 (let (($x3759 (and $x485 (or (not R_S1_V2) (= (ite MW_S1_V2 S1_V2_!5074 ?x4020) ?x4020)) $x4223 (or (not R_S1_V1) (= ?x3192 (+ (- 1) ?x2771))))))
 (let (($x4905 (not $x3759)))
 (let (($x387 (= S1_V5_!5058 S1_V5_!5078)))
 (let ((?x957 (ite MW_S2_V3 S2_V3_!5070 V3_0)))
 (let ((?x783 (ite MW_S1_V3 S1_V3_!5075 ?x957)))
 (let ((?x3184 (ite MW_S2_V3 S2_V3_!5055 (ite MW_S1_V3 S1_V3_!5050 V3_0))))
 (let ((?x3992 (ite MW_S2_V5 S2_V5_!5068 V5_0)))
 (let ((?x4628 (ite MW_S1_V5 S1_V5_!5073 ?x3992)))
 (let ((?x24 (ite MW_S1_V5 S1_V5_!5048 V5_0)))
 (let ((?x2021 (ite MW_S2_V5 S2_V5_!5053 ?x24)))
 (let (($x3845 (and (or $x4147 (= ?x2021 ?x4628)) (or (not R_S1_V2) (= ?x2933 (ite MW_S1_V2 S1_V2_!5074 ?x4020))) (or $x135 (= ?x3184 ?x783)) (or (not R_S1_V1) (= ?x2210 ?x3192)))))
 (let (($x3130 (not $x3845)))
 (let (($x6082 (= S1_V5_!5058 S1_V5_!5073)))
 (let (($x2185 (and (or $x4147 (= ?x2021 ?x3992)) (or (not R_S1_V2) (= ?x2933 ?x4020)) (or $x135 (= ?x3184 ?x957)) (or (not R_S1_V1) (= ?x2210 (+ (- 1) ?x2771))))))
 (let (($x1702 (not $x2185)))
 (let (($x4882 (= S1_V5_!5058 S1_V5_!5048)))
 (let (($x3630 (and (or $x4147 (= ?x2021 V5_0)) (or (not R_S1_V2) (= ?x2933 V2_0)) (or $x135 (= ?x3184 V3_0)) (or (not R_S1_V1) (= ?x2210 (+ (- 1) V1_0))))))
 (let (($x899 (not $x3630)))
 (let (($x5115 (= S1_V5_!5048 S1_V5_!5078)))
 (let (($x1506 (and (or $x4147 (= V5_0 ?x4628)) (or (not R_S1_V2) (= V2_0 (ite MW_S1_V2 S1_V2_!5074 ?x4020))) (or $x135 (= V3_0 ?x783)) (or (not R_S1_V1) (= V1_0 ?x2338)))))
 (let (($x828 (not $x1506)))
 (let (($x1944 (= S1_V5_!5048 S1_V5_!5073)))
 (let (($x4869 (and (or $x4147 (= V5_0 ?x3992)) (or (not R_S1_V2) (= V2_0 ?x4020)) (or $x135 (= V3_0 ?x957)) (or (not R_S1_V1) (= V1_0 ?x2771)))))
 (let (($x2914 (not $x4869)))
 (let (($x2409 (= S2_V3_!5070 S2_V3_!5055)))
 (let (($x3609 (and (or (not R_S2_V4) (= V4_0 (ite MW_S1_V4 S1_V4_!5047 V4_0))) (or (not R_S2_V5) (= V5_0 ?x24)) (or (not R_S2_V2) (= V2_0 ?x2766)) (or (not R_S2_V1) (= V1_0 ?x2161)))))
 (let (($x1821 (not $x3609)))
 (let (($x3955 (= S2_V3_!5065 S2_V3_!5070)))
 (let (($x3366 (not R_S2_V4)))
 (let (($x818 (or $x3366 (= (ite MW_S1_V4 S1_V4_!5057 (ite MW_S2_V4 S2_V4_!5052 (ite MW_S1_V4 S1_V4_!5047 V4_0))) V4_0))))
 (let (($x995 (and $x818 (or (not R_S2_V5) (= (ite MW_S1_V5 S1_V5_!5058 ?x2021) V5_0)) (or (not R_S2_V2) (= ?x4528 V2_0)) (or (not R_S2_V1) (= ?x5766 V1_0)))))
 (let (($x1794 (not $x995)))
 (let (($x1367 (= S2_V3_!5065 S2_V3_!5055)))
 (let ((?x5048 (ite MW_S1_V4 S1_V4_!5047 V4_0)))
 (let ((?x2793 (ite MW_S1_V4 S1_V4_!5057 (ite MW_S2_V4 S2_V4_!5052 ?x5048))))
 (let (($x2485 (and (or $x3366 (= ?x2793 ?x5048)) (or (not R_S2_V5) (= (ite MW_S1_V5 S1_V5_!5058 ?x2021) ?x24)) (or (not R_S2_V2) (= ?x4528 ?x2766)) (or (not R_S2_V1) (= ?x5766 ?x2161)))))
 (let (($x2315 (not $x2485)))
 (let (($x2232 (= S2_V1_!5071 S2_V1_!5066)))
 (let (($x541 (and (or $x3366 (= V4_0 ?x2793)) (or (not R_S2_V5) (= V5_0 (ite MW_S1_V5 S1_V5_!5058 ?x2021))) (or (not R_S2_V2) (= V2_0 ?x4528)) (or (not R_S2_V1) (= V1_0 ?x5766)))))
 (let (($x2605 (not $x541)))
 (let (($x2122 (= S1_V2_!5079 S1_V2_!5059)))
 (let (($x2912 (and (or $x4147 (= ?x4628 ?x2021)) (or (not R_S1_V2) (= (ite MW_S1_V2 S1_V2_!5074 ?x4020) ?x2933)) (or $x135 (= ?x783 ?x3184)) (or (not R_S1_V1) (= ?x3192 ?x2210)))))
 (let (($x2782 (not $x2912)))
 (let (($x3560 (= S1_V2_!5079 S1_V2_!5049)))
 (let (($x2752 (and (or $x4147 (= ?x4628 V5_0)) (or (not R_S1_V2) (= (ite MW_S1_V2 S1_V2_!5074 ?x4020) V2_0)) (or $x135 (= ?x783 V3_0)) (or (not R_S1_V1) (= ?x3192 (+ (- 1) V1_0))))))
 (let (($x4204 (= S1_V2_!5074 S1_V2_!5059)))
 (let (($x1875 (and (or $x4147 (= ?x3992 ?x2021)) (or (not R_S1_V2) (= ?x4020 ?x2933)) (or $x135 (= ?x957 ?x3184)) (or (not R_S1_V1) (= ?x2771 ?x5952)))))
 (let (($x1502 (= S1_V2_!5049 S1_V2_!5059)))
 (let (($x5166 (and (or $x4147 (= V5_0 ?x2021)) (or (not R_S1_V2) (= V2_0 ?x2933)) (or $x135 (= V3_0 ?x3184)) (or (not R_S1_V1) (= V1_0 ?x5952)))))
 (let (($x3538 (not $x5166)))
 (let (($x364 (= S2_V5_!5053 S2_V5_!5063)))
 (let (($x593 (and (or $x3366 (= ?x5048 ?x2793)) (or (not R_S2_V5) (= ?x24 (ite MW_S1_V5 S1_V5_!5058 ?x2021))) (or (not R_S2_V2) (= ?x2766 ?x4528)) (or (not R_S2_V1) (= ?x2161 ?x5766)))))
 (let (($x3108 (= S1_V4_!5072 S1_V4_!5077)))
 (let (($x4810 (and (or $x4147 (= ?x3992 ?x4628)) (or (not R_S1_V2) (= ?x4020 (ite MW_S1_V2 S1_V2_!5074 ?x4020))) (or $x135 (= ?x957 ?x783)) (or (not R_S1_V1) (= ?x2771 ?x2338)))))
 (let (($x2565 (= S1_V4_!5072 S1_V4_!5047)))
 (let (($x94 (and (or $x4147 (= ?x3992 V5_0)) (or (not R_S1_V2) (= ?x4020 V2_0)) (or $x135 (= ?x957 V3_0)) (or (not R_S1_V1) (= ?x2771 V1_0)))))
 (let (($x703 (and (or $x828 (= S1_V4_!5047 S1_V4_!5077)) (or $x899 (= S1_V4_!5057 S1_V4_!5047)) (or $x1702 (= S1_V4_!5057 S1_V4_!5072)) (or $x3130 (= S1_V4_!5057 S1_V4_!5077)) (or (not $x94) $x2565) (or (not $x4810) $x3108) (or $x2315 (= S2_V4_!5062 S2_V4_!5052)) (or $x1794 (= S2_V4_!5062 S2_V4_!5067)) (or $x1821 (= S2_V4_!5067 S2_V4_!5052)) (or (not $x593) $x364) (or $x1821 (= S2_V5_!5068 S2_V5_!5053)) (or $x2605 (= S2_V5_!5068 S2_V5_!5063)) (or $x2914 (= S1_V1_!5051 S1_V1_!5076)) (or $x828 (= S1_V1_!5051 S1_V1_!5081)) (or $x899 (= S1_V1_!5061 S1_V1_!5051)) (or $x1702 (= S1_V1_!5061 S1_V1_!5076)) (or $x3130 (= S1_V1_!5061 S1_V1_!5081)) (or $x4905 (= S1_V1_!5081 S1_V1_!5076)) (or $x3538 (= S1_V3_!5050 S1_V3_!5060)) (or $x2914 (= S1_V3_!5050 S1_V3_!5075)) (or $x828 (= S1_V3_!5050 S1_V3_!5080)) (or $x1702 (= S1_V3_!5060 S1_V3_!5075)) (or $x2782 (= S1_V3_!5080 S1_V3_!5060)) (or $x4905 (= S1_V3_!5080 S1_V3_!5075)) (or $x3538 $x1502) (or $x2914 (= S1_V2_!5049 S1_V2_!5074)) (or (not $x1875) $x4204) (or (not $x2752) $x3560) (or $x2782 $x2122) (or $x4905 (= S1_V2_!5079 S1_V2_!5074)) (or $x2315 (= S2_V1_!5066 S2_V1_!5056)) (or $x1821 (= S2_V1_!5071 S2_V1_!5056)) (or $x2605 $x2232) (or $x2315 (= S2_V2_!5064 S2_V2_!5054)) (or $x1794 (= S2_V2_!5064 S2_V2_!5069)) (or $x1821 (= S2_V2_!5069 S2_V2_!5054)) (or $x2315 $x1367) (or $x1794 $x3955) (or $x1821 $x2409) (or $x2914 $x1944) (or $x828 $x5115) (or $x899 $x4882) (or $x1702 $x6082) (or $x3130 $x387) (or $x4905 $x5958) (not MW_S1_V4) (or (not MW_S1_V5) W_S1_V5) (or (not MW_S1_V2) W_S1_V2) (or (not MW_S1_V1) W_S1_V1) (or (not MW_S2_V5) W_S2_V5) $x819 (not MW_S2_V3) $x1409)))
 (or (not $x703) (not $x5310) (and $x3270 $x2311 (= ?x961 ?x5894) $x3728 (= ?x2678 ?x1968)))))))))))))))))))))))))))))))))))))))))))))))))))))))))))))))))))))))))))))))))))))))
 )
 )
 )
 )
 )
 )
 )
 )
 )
 )
 )
 )
 )
 )
 )
 )
 )
 )
 )
 )
 )
 )
 )
 )
 )
 )
 )
 )
 )
 )
 )
 )
 )
 )
 )
 )
 )
 )
 )
 )
 )
 )
 )
 )
 )
 )
 )
 )
 )
 ))
 (let (($x2422 (= DISJ_W_S2_R_S2 (not (or R_S2_V4 (and W_S2_V5 R_S2_V5))))))
 (let (($x5296 (not R_S1_V4)))
 (let (($x1929 (not W_S1_V4)))
 (let (($x2486 (and W_S1_V1 R_S1_V1)))
 (let (($x4875 (and W_S1_V2 R_S1_V2)))
 (let (($x1774 (and W_S1_V5 R_S1_V5)))
 (let (($x3123 (= DISJ_W_S1_R_S1 (not (or $x1774 $x4875 R_S1_V3 $x2486)))))
 (let (($x3158 (not W_S2_V1)))
 (let (($x3531 (not W_S2_V2)))
 (let (($x5070 (and DISJ_W_S1_R_S2 DISJ_W_S1_W_S2 DISJ_W_S2_R_S1 $x3531 $x3158 W_S1_V3 W_S2_V4 $x3123 $x1929 $x5296 $x2422 $x1310 $x3744 $x1442 $x386 $x2116 $x5912 $x3088 $x1611)))
 (and $x5070 $x536)))))))))))))))))))))
(check-sat)
